c description: Graph pigeonhole principle formula on fast_gnp_random_graph(10,25,0.9)
c generator: CNFgen (0.9.0)
c copyright: (C) 2012-2020 Massimo Lauria <massimo.lauria@uniroma1.it>
c url: https://massimolauria.net/cnfgen
c
p cnf 231 969
1 2 3 4 5 6 7 8 9 10 11 12 13 14 15 16 17 18 19 20 21 0
22 23 24 25 26 27 28 29 30 31 32 33 34 35 36 37 38 39 40 41 42 43 44 45 0
46 47 48 49 50 51 52 53 54 55 56 57 58 59 60 61 62 63 64 65 66 67 68 69 70 0
71 72 73 74 75 76 77 78 79 80 81 82 83 84 85 86 87 88 89 90 91 92 93 0
94 95 96 97 98 99 100 101 102 103 104 105 106 107 108 109 110 111 112 113 114 115 0
116 117 118 119 120 121 122 123 124 125 126 127 128 129 130 131 132 133 134 135 136 137 138 139 0
140 141 142 143 144 145 146 147 148 149 150 151 152 153 154 155 156 157 158 159 160 161 162 0
163 164 165 166 167 168 169 170 171 172 173 174 175 176 177 178 179 180 181 182 183 184 185 186 0
187 188 189 190 191 192 193 194 195 196 197 198 199 200 201 202 203 204 205 206 207 0
208 209 210 211 212 213 214 215 216 217 218 219 220 221 222 223 224 225 226 227 228 229 230 231 0
-1 -22 0
-1 -46 0
-1 -94 0
-1 -116 0
-1 -140 0
-1 -163 0
-1 -187 0
-1 -208 0
-22 -46 0
-22 -94 0
-22 -116 0
-22 -140 0
-22 -163 0
-22 -187 0
-22 -208 0
-46 -94 0
-46 -116 0
-46 -140 0
-46 -163 0
-46 -187 0
-46 -208 0
-94 -116 0
-94 -140 0
-94 -163 0
-94 -187 0
-94 -208 0
-116 -140 0
-116 -163 0
-116 -187 0
-116 -208 0
-140 -163 0
-140 -187 0
-140 -208 0
-163 -187 0
-163 -208 0
-187 -208 0
-2 -23 0
-2 -47 0
-2 -71 0
-2 -95 0
-2 -117 0
-2 -141 0
-2 -164 0
-2 -209 0
-23 -47 0
-23 -71 0
-23 -95 0
-23 -117 0
-23 -141 0
-23 -164 0
-23 -209 0
-47 -71 0
-47 -95 0
-47 -117 0
-47 -141 0
-47 -164 0
-47 -209 0
-71 -95 0
-71 -117 0
-71 -141 0
-71 -164 0
-71 -209 0
-95 -117 0
-95 -141 0
-95 -164 0
-95 -209 0
-117 -141 0
-117 -164 0
-117 -209 0
-141 -164 0
-141 -209 0
-164 -209 0
-24 -48 0
-24 -72 0
-24 -96 0
-24 -118 0
-24 -142 0
-24 -165 0
-24 -188 0
-24 -210 0
-48 -72 0
-48 -96 0
-48 -118 0
-48 -142 0
-48 -165 0
-48 -188 0
-48 -210 0
-72 -96 0
-72 -118 0
-72 -142 0
-72 -165 0
-72 -188 0
-72 -210 0
-96 -118 0
-96 -142 0
-96 -165 0
-96 -188 0
-96 -210 0
-118 -142 0
-118 -165 0
-118 -188 0
-118 -210 0
-142 -165 0
-142 -188 0
-142 -210 0
-165 -188 0
-165 -210 0
-188 -210 0
-25 -49 0
-25 -73 0
-25 -97 0
-25 -119 0
-25 -143 0
-25 -166 0
-25 -189 0
-25 -211 0
-49 -73 0
-49 -97 0
-49 -119 0
-49 -143 0
-49 -166 0
-49 -189 0
-49 -211 0
-73 -97 0
-73 -119 0
-73 -143 0
-73 -166 0
-73 -189 0
-73 -211 0
-97 -119 0
-97 -143 0
-97 -166 0
-97 -189 0
-97 -211 0
-119 -143 0
-119 -166 0
-119 -189 0
-119 -211 0
-143 -166 0
-143 -189 0
-143 -211 0
-166 -189 0
-166 -211 0
-189 -211 0
-3 -26 0
-3 -50 0
-3 -74 0
-3 -98 0
-3 -120 0
-3 -144 0
-3 -167 0
-3 -190 0
-3 -212 0
-26 -50 0
-26 -74 0
-26 -98 0
-26 -120 0
-26 -144 0
-26 -167 0
-26 -190 0
-26 -212 0
-50 -74 0
-50 -98 0
-50 -120 0
-50 -144 0
-50 -167 0
-50 -190 0
-50 -212 0
-74 -98 0
-74 -120 0
-74 -144 0
-74 -167 0
-74 -190 0
-74 -212 0
-98 -120 0
-98 -144 0
-98 -167 0
-98 -190 0
-98 -212 0
-120 -144 0
-120 -167 0
-120 -190 0
-120 -212 0
-144 -167 0
-144 -190 0
-144 -212 0
-167 -190 0
-167 -212 0
-190 -212 0
-4 -27 0
-4 -51 0
-4 -75 0
-4 -99 0
-4 -121 0
-4 -145 0
-4 -168 0
-4 -191 0
-4 -213 0
-27 -51 0
-27 -75 0
-27 -99 0
-27 -121 0
-27 -145 0
-27 -168 0
-27 -191 0
-27 -213 0
-51 -75 0
-51 -99 0
-51 -121 0
-51 -145 0
-51 -168 0
-51 -191 0
-51 -213 0
-75 -99 0
-75 -121 0
-75 -145 0
-75 -168 0
-75 -191 0
-75 -213 0
-99 -121 0
-99 -145 0
-99 -168 0
-99 -191 0
-99 -213 0
-121 -145 0
-121 -168 0
-121 -191 0
-121 -213 0
-145 -168 0
-145 -191 0
-145 -213 0
-168 -191 0
-168 -213 0
-191 -213 0
-5 -28 0
-5 -52 0
-5 -76 0
-5 -100 0
-5 -146 0
-5 -169 0
-5 -192 0
-5 -214 0
-28 -52 0
-28 -76 0
-28 -100 0
-28 -146 0
-28 -169 0
-28 -192 0
-28 -214 0
-52 -76 0
-52 -100 0
-52 -146 0
-52 -169 0
-52 -192 0
-52 -214 0
-76 -100 0
-76 -146 0
-76 -169 0
-76 -192 0
-76 -214 0
-100 -146 0
-100 -169 0
-100 -192 0
-100 -214 0
-146 -169 0
-146 -192 0
-146 -214 0
-169 -192 0
-169 -214 0
-192 -214 0
-6 -29 0
-6 -53 0
-6 -77 0
-6 -101 0
-6 -122 0
-6 -147 0
-6 -170 0
-6 -193 0
-6 -215 0
-29 -53 0
-29 -77 0
-29 -101 0
-29 -122 0
-29 -147 0
-29 -170 0
-29 -193 0
-29 -215 0
-53 -77 0
-53 -101 0
-53 -122 0
-53 -147 0
-53 -170 0
-53 -193 0
-53 -215 0
-77 -101 0
-77 -122 0
-77 -147 0
-77 -170 0
-77 -193 0
-77 -215 0
-101 -122 0
-101 -147 0
-101 -170 0
-101 -193 0
-101 -215 0
-122 -147 0
-122 -170 0
-122 -193 0
-122 -215 0
-147 -170 0
-147 -193 0
-147 -215 0
-170 -193 0
-170 -215 0
-193 -215 0
-7 -30 0
-7 -54 0
-7 -78 0
-7 -123 0
-7 -148 0
-7 -171 0
-7 -194 0
-7 -216 0
-30 -54 0
-30 -78 0
-30 -123 0
-30 -148 0
-30 -171 0
-30 -194 0
-30 -216 0
-54 -78 0
-54 -123 0
-54 -148 0
-54 -171 0
-54 -194 0
-54 -216 0
-78 -123 0
-78 -148 0
-78 -171 0
-78 -194 0
-78 -216 0
-123 -148 0
-123 -171 0
-123 -194 0
-123 -216 0
-148 -171 0
-148 -194 0
-148 -216 0
-171 -194 0
-171 -216 0
-194 -216 0
-8 -31 0
-8 -55 0
-8 -79 0
-8 -124 0
-8 -149 0
-8 -172 0
-8 -195 0
-8 -217 0
-31 -55 0
-31 -79 0
-31 -124 0
-31 -149 0
-31 -172 0
-31 -195 0
-31 -217 0
-55 -79 0
-55 -124 0
-55 -149 0
-55 -172 0
-55 -195 0
-55 -217 0
-79 -124 0
-79 -149 0
-79 -172 0
-79 -195 0
-79 -217 0
-124 -149 0
-124 -172 0
-124 -195 0
-124 -217 0
-149 -172 0
-149 -195 0
-149 -217 0
-172 -195 0
-172 -217 0
-195 -217 0
-9 -32 0
-9 -56 0
-9 -80 0
-9 -102 0
-9 -125 0
-9 -150 0
-9 -173 0
-9 -196 0
-9 -218 0
-32 -56 0
-32 -80 0
-32 -102 0
-32 -125 0
-32 -150 0
-32 -173 0
-32 -196 0
-32 -218 0
-56 -80 0
-56 -102 0
-56 -125 0
-56 -150 0
-56 -173 0
-56 -196 0
-56 -218 0
-80 -102 0
-80 -125 0
-80 -150 0
-80 -173 0
-80 -196 0
-80 -218 0
-102 -125 0
-102 -150 0
-102 -173 0
-102 -196 0
-102 -218 0
-125 -150 0
-125 -173 0
-125 -196 0
-125 -218 0
-150 -173 0
-150 -196 0
-150 -218 0
-173 -196 0
-173 -218 0
-196 -218 0
-10 -33 0
-10 -57 0
-10 -81 0
-10 -103 0
-10 -126 0
-10 -151 0
-10 -174 0
-10 -197 0
-10 -219 0
-33 -57 0
-33 -81 0
-33 -103 0
-33 -126 0
-33 -151 0
-33 -174 0
-33 -197 0
-33 -219 0
-57 -81 0
-57 -103 0
-57 -126 0
-57 -151 0
-57 -174 0
-57 -197 0
-57 -219 0
-81 -103 0
-81 -126 0
-81 -151 0
-81 -174 0
-81 -197 0
-81 -219 0
-103 -126 0
-103 -151 0
-103 -174 0
-103 -197 0
-103 -219 0
-126 -151 0
-126 -174 0
-126 -197 0
-126 -219 0
-151 -174 0
-151 -197 0
-151 -219 0
-174 -197 0
-174 -219 0
-197 -219 0
-58 -82 0
-58 -104 0
-58 -127 0
-58 -152 0
-58 -175 0
-58 -220 0
-82 -104 0
-82 -127 0
-82 -152 0
-82 -175 0
-82 -220 0
-104 -127 0
-104 -152 0
-104 -175 0
-104 -220 0
-127 -152 0
-127 -175 0
-127 -220 0
-152 -175 0
-152 -220 0
-175 -220 0
-11 -34 0
-11 -59 0
-11 -83 0
-11 -105 0
-11 -128 0
-11 -153 0
-11 -176 0
-11 -198 0
-34 -59 0
-34 -83 0
-34 -105 0
-34 -128 0
-34 -153 0
-34 -176 0
-34 -198 0
-59 -83 0
-59 -105 0
-59 -128 0
-59 -153 0
-59 -176 0
-59 -198 0
-83 -105 0
-83 -128 0
-83 -153 0
-83 -176 0
-83 -198 0
-105 -128 0
-105 -153 0
-105 -176 0
-105 -198 0
-128 -153 0
-128 -176 0
-128 -198 0
-153 -176 0
-153 -198 0
-176 -198 0
-12 -35 0
-12 -60 0
-12 -84 0
-12 -106 0
-12 -129 0
-12 -177 0
-12 -199 0
-12 -221 0
-35 -60 0
-35 -84 0
-35 -106 0
-35 -129 0
-35 -177 0
-35 -199 0
-35 -221 0
-60 -84 0
-60 -106 0
-60 -129 0
-60 -177 0
-60 -199 0
-60 -221 0
-84 -106 0
-84 -129 0
-84 -177 0
-84 -199 0
-84 -221 0
-106 -129 0
-106 -177 0
-106 -199 0
-106 -221 0
-129 -177 0
-129 -199 0
-129 -221 0
-177 -199 0
-177 -221 0
-199 -221 0
-13 -36 0
-13 -61 0
-13 -85 0
-13 -107 0
-13 -130 0
-13 -154 0
-13 -178 0
-13 -200 0
-13 -222 0
-36 -61 0
-36 -85 0
-36 -107 0
-36 -130 0
-36 -154 0
-36 -178 0
-36 -200 0
-36 -222 0
-61 -85 0
-61 -107 0
-61 -130 0
-61 -154 0
-61 -178 0
-61 -200 0
-61 -222 0
-85 -107 0
-85 -130 0
-85 -154 0
-85 -178 0
-85 -200 0
-85 -222 0
-107 -130 0
-107 -154 0
-107 -178 0
-107 -200 0
-107 -222 0
-130 -154 0
-130 -178 0
-130 -200 0
-130 -222 0
-154 -178 0
-154 -200 0
-154 -222 0
-178 -200 0
-178 -222 0
-200 -222 0
-14 -37 0
-14 -62 0
-14 -86 0
-14 -108 0
-14 -131 0
-14 -155 0
-14 -223 0
-37 -62 0
-37 -86 0
-37 -108 0
-37 -131 0
-37 -155 0
-37 -223 0
-62 -86 0
-62 -108 0
-62 -131 0
-62 -155 0
-62 -223 0
-86 -108 0
-86 -131 0
-86 -155 0
-86 -223 0
-108 -131 0
-108 -155 0
-108 -223 0
-131 -155 0
-131 -223 0
-155 -223 0
-15 -38 0
-15 -63 0
-15 -87 0
-15 -109 0
-15 -132 0
-15 -156 0
-15 -179 0
-15 -201 0
-15 -224 0
-38 -63 0
-38 -87 0
-38 -109 0
-38 -132 0
-38 -156 0
-38 -179 0
-38 -201 0
-38 -224 0
-63 -87 0
-63 -109 0
-63 -132 0
-63 -156 0
-63 -179 0
-63 -201 0
-63 -224 0
-87 -109 0
-87 -132 0
-87 -156 0
-87 -179 0
-87 -201 0
-87 -224 0
-109 -132 0
-109 -156 0
-109 -179 0
-109 -201 0
-109 -224 0
-132 -156 0
-132 -179 0
-132 -201 0
-132 -224 0
-156 -179 0
-156 -201 0
-156 -224 0
-179 -201 0
-179 -224 0
-201 -224 0
-16 -39 0
-16 -64 0
-16 -88 0
-16 -110 0
-16 -133 0
-16 -157 0
-16 -180 0
-16 -202 0
-16 -225 0
-39 -64 0
-39 -88 0
-39 -110 0
-39 -133 0
-39 -157 0
-39 -180 0
-39 -202 0
-39 -225 0
-64 -88 0
-64 -110 0
-64 -133 0
-64 -157 0
-64 -180 0
-64 -202 0
-64 -225 0
-88 -110 0
-88 -133 0
-88 -157 0
-88 -180 0
-88 -202 0
-88 -225 0
-110 -133 0
-110 -157 0
-110 -180 0
-110 -202 0
-110 -225 0
-133 -157 0
-133 -180 0
-133 -202 0
-133 -225 0
-157 -180 0
-157 -202 0
-157 -225 0
-180 -202 0
-180 -225 0
-202 -225 0
-40 -65 0
-40 -89 0
-40 -111 0
-40 -134 0
-40 -158 0
-40 -181 0
-40 -203 0
-40 -226 0
-65 -89 0
-65 -111 0
-65 -134 0
-65 -158 0
-65 -181 0
-65 -203 0
-65 -226 0
-89 -111 0
-89 -134 0
-89 -158 0
-89 -181 0
-89 -203 0
-89 -226 0
-111 -134 0
-111 -158 0
-111 -181 0
-111 -203 0
-111 -226 0
-134 -158 0
-134 -181 0
-134 -203 0
-134 -226 0
-158 -181 0
-158 -203 0
-158 -226 0
-181 -203 0
-181 -226 0
-203 -226 0
-17 -41 0
-17 -66 0
-17 -90 0
-17 -112 0
-17 -135 0
-17 -159 0
-17 -182 0
-17 -204 0
-17 -227 0
-41 -66 0
-41 -90 0
-41 -112 0
-41 -135 0
-41 -159 0
-41 -182 0
-41 -204 0
-41 -227 0
-66 -90 0
-66 -112 0
-66 -135 0
-66 -159 0
-66 -182 0
-66 -204 0
-66 -227 0
-90 -112 0
-90 -135 0
-90 -159 0
-90 -182 0
-90 -204 0
-90 -227 0
-112 -135 0
-112 -159 0
-112 -182 0
-112 -204 0
-112 -227 0
-135 -159 0
-135 -182 0
-135 -204 0
-135 -227 0
-159 -182 0
-159 -204 0
-159 -227 0
-182 -204 0
-182 -227 0
-204 -227 0
-18 -42 0
-18 -67 0
-18 -91 0
-18 -136 0
-18 -160 0
-18 -183 0
-18 -228 0
-42 -67 0
-42 -91 0
-42 -136 0
-42 -160 0
-42 -183 0
-42 -228 0
-67 -91 0
-67 -136 0
-67 -160 0
-67 -183 0
-67 -228 0
-91 -136 0
-91 -160 0
-91 -183 0
-91 -228 0
-136 -160 0
-136 -183 0
-136 -228 0
-160 -183 0
-160 -228 0
-183 -228 0
-19 -43 0
-19 -68 0
-19 -113 0
-19 -137 0
-19 -161 0
-19 -184 0
-19 -205 0
-19 -229 0
-43 -68 0
-43 -113 0
-43 -137 0
-43 -161 0
-43 -184 0
-43 -205 0
-43 -229 0
-68 -113 0
-68 -137 0
-68 -161 0
-68 -184 0
-68 -205 0
-68 -229 0
-113 -137 0
-113 -161 0
-113 -184 0
-113 -205 0
-113 -229 0
-137 -161 0
-137 -184 0
-137 -205 0
-137 -229 0
-161 -184 0
-161 -205 0
-161 -229 0
-184 -205 0
-184 -229 0
-205 -229 0
-20 -44 0
-20 -69 0
-20 -92 0
-20 -114 0
-20 -138 0
-20 -162 0
-20 -185 0
-20 -206 0
-20 -230 0
-44 -69 0
-44 -92 0
-44 -114 0
-44 -138 0
-44 -162 0
-44 -185 0
-44 -206 0
-44 -230 0
-69 -92 0
-69 -114 0
-69 -138 0
-69 -162 0
-69 -185 0
-69 -206 0
-69 -230 0
-92 -114 0
-92 -138 0
-92 -162 0
-92 -185 0
-92 -206 0
-92 -230 0
-114 -138 0
-114 -162 0
-114 -185 0
-114 -206 0
-114 -230 0
-138 -162 0
-138 -185 0
-138 -206 0
-138 -230 0
-162 -185 0
-162 -206 0
-162 -230 0
-185 -206 0
-185 -230 0
-206 -230 0
-21 -45 0
-21 -70 0
-21 -93 0
-21 -115 0
-21 -139 0
-21 -186 0
-21 -207 0
-21 -231 0
-45 -70 0
-45 -93 0
-45 -115 0
-45 -139 0
-45 -186 0
-45 -207 0
-45 -231 0
-70 -93 0
-70 -115 0
-70 -139 0
-70 -186 0
-70 -207 0
-70 -231 0
-93 -115 0
-93 -139 0
-93 -186 0
-93 -207 0
-93 -231 0
-115 -139 0
-115 -186 0
-115 -207 0
-115 -231 0
-139 -186 0
-139 -207 0
-139 -231 0
-186 -207 0
-186 -231 0
-207 -231 0